\ Model Huber_loss
\ LP format - for model browsing. Use MPS format to capture full model detail.
Minimize
  0.2242857142857143 abs_0 + 0.2242857142857143 abs_1
   + 0.2242857142857143 abs_2 + 0.2242857142857143 abs_3
   + 0.2242857142857143 abs_4 + 0.2242857142857143 abs_5
   + 0.2242857142857143 abs_6 + 157 Constant + [ 314 w0 ^2 + 314 w1 ^2
   + 0.1428571428571428 z_0 ^2 + 0.1428571428571428 z_1 ^2
   + 0.1428571428571428 z_2 ^2 + 0.1428571428571428 z_3 ^2
   + 0.1428571428571428 z_4 ^2 + 0.1428571428571428 z_5 ^2
   + 0.1428571428571428 z_6 ^2 ] / 2 
Subject To
 R0: - w0 - 1.174345729437642 w1 + z_0 + C4 = -1.433832755766481
 R1: - w0 - 0.3862178522203878 w1 + z_1 + C7 = -1.103649871721759
 R2: - w0 - 1.599214658346796 w1 + z_2 + C10 = -1.793267854403062
 R3: - w0 - 0.0298233386325421 w1 + z_3 + C13 = -1.04864279353429
 R4: - w0 - 1.76745729886752 w1 + z_4 + C16 = -2.080284361757528
 R5: - w0 - 0.4399202965792479 w1 + z_5 + C19 = -1.192137746784001
 R6: - w0 - 1.566704152458803 w1 + z_6 + C22 = -1.806135531247109
Bounds
 Constant = 1
General Constraints
 absconstr_0: abs_0 = ABS ( C4 )
 absconstr_1: abs_1 = ABS ( C7 )
 absconstr_2: abs_2 = ABS ( C10 )
 absconstr_3: abs_3 = ABS ( C13 )
 absconstr_4: abs_4 = ABS ( C16 )
 absconstr_5: abs_5 = ABS ( C19 )
 absconstr_6: abs_6 = ABS ( C22 )
End
